80 876742801
72 76 40 43 66 74 64 12 8 45 80 50 11 25 36 14 4 77 7 70 41 10 27 29 75 69 17 32 53 24 3 57 2 26 46 15 60 23 16 22 51 39 73 31 61 9 19 63 47 44 71 6 18 48 30 62 65 5 35 42 58 55 67 54 56 28 37 33 68 59 21 79 49 78 52 20 38 1 34 13 
